
  32    4
  10   10   10   10

   0   0   0   0   0   5 2 4 7 30 31 
   4   0   1   1   1   4 29 27 16 3 
   6   1   3   0   4   3 28 25 5 
   5   0   4   2   5   6 27 26 25 24 15 9 
   7   7   2   0   6   2 26 6 
   8   6   1   3   0   1 8 
   7   0   5   2   2   4 27 25 20 9 
  10   5   2   0   4   3 24 15 9 
   3   5   1   4   0   4 23 22 21 10 
   9   3   0   8   2   1 11 
   8   0   6   4   4   2 19 12 
   6   4   4   0   4   2 18 13 
   2   0   5   6   6   1 14 
   3   5   4   3   0   1 17 
   4   0   2   8   6   1 20 
  10   5   0   2   4   1 20 
   2   4   3   0   3   1 32
   2   4   4   0   2   1 32
   3   4   0   3   2   1 32
   6   2   6   0   3   1 32
   2   0   3   2   4   1 32
   3   4   4   4   0   1 32
   9   4   3   6   0   1 32
   3   2   7   0   4   1 32
   8   4   0   6   3   1 32
   3   6   3   3   0   1 32
   5   2   0   2   4   1 32
   8   3   5   0   7   1 32
   4   4   6   7   0   1 32
   7   0   7   4   5   1 32
   5   0   9   4   7   1 32
   0   0   0   0   0   0 
